100
128
39
8
46
53
52
16
29
23
13
32
1
8
27
32
17
47
50
2
53
64
57
17
54
14
53
14
36
53
57
3
26
26
18
38
52
33
56
19
30
19
35
51
12
22
25
12
9
40
47
14
10
31
1
12
7
15
27
18
37
31
22
2
12
2
21
44
36
1
15
33
21
13
43
32
11
17
2
43
5
17
20
53
43
48
39
49
55
18
14
3
15
64
14
31
32
48
26
24
25
55